15
2 1 3
3 0 3
3 2 2
4 1 3
5 0 1
5 1 3
5 2 2
5 3 1
5 4 3
6 2 1
7 1 2
7 4 3
7 5 2
7 6 4
8 0 3
8 3 4
8 4 2
8 7 1
9 2 1
9 3 2
9 4 4
9 8 1
10 0 4
10 1 1
10 5 1
10 7 1
10 8 2
10 9 3
11 0 2
11 3 2
11 5 3
11 9 3
12 2 1
12 3 2
12 5 1
12 6 3
12 8 3
12 9 4
12 10 4
13 1 3
13 2 3
13 6 2
13 7 3
13 10 3
13 11 3
13 12 1
14 1 4
14 3 1
14 4 2
14 8 1
14 10 4
